32      4       
13      10      9       13      
0       0       0       0       0       3       2       3       4       
2       1       0       0       0       3       5       10      11      
3       0       4       0       0       3       7       9       11      
10      0       0       0       8       3       6       8       10      
5       0       0       0       1       3       6       7       16      
8       0       0       0       6       1       29      
2       5       0       0       0       2       13      14      
3       3       0       0       0       3       12      15      19      
7       0       0       0       8       3       15      20      25      
3       0       0       8       0       3       13      24      30      
4       8       0       0       0       1       20      
10      0       0       0       5       3       13      22      25      
9       7       0       0       0       2       17      31      
3       10      0       0       0       2       17      18      
7       0       0       9       0       1       30      
2       0       0       3       0       2       20      22      
1       0       0       0       4       1       23      
7       0       0       0       6       1       27      
8       7       0       0       0       1       22      
9       2       0       0       0       2       21      23      
2       0       5       0       0       1       26      
2       0       0       9       0       3       23      26      28      
2       0       0       0       5       1       29      
9       0       6       0       0       2       29      31      
6       0       8       0       0       2       27      28      
9       0       0       9       0       1       27      
7       0       0       1       0       1       30      
9       0       0       0       7       1       31      
1       0       7       0       0       1       32      
3       0       3       0       0       1       32      
3       6       0       0       0       1       32      
0       0       0       0       0       0       